Optimal - objective value -490.00000000
      0 x_0                      0                      48
      1 x_1                      0                       0
      2 x_2                      0                      37
      3 x_3                      0                       0
      4 x_4                      0                       0
      5 x_5                      0                       0
      6 x_6                      0                       0
      7 x_7                      0                       7
      8 x_8                      1                       0
      9 x_9                      0                       0
     10 x_10                     0                       8
     11 x_11                     0                       0
     12 x_12                     0                       0
     13 x_13                     0                      44
     14 x_14                     1                     -21
     15 x_15                     0                       0
     16 x_16                     0                       0
     17 x_17                     0                       0
     18 x_18                     0                       3
     19 x_19                     0                      34
     20 x_20                     0                       0
     21 x_21                     1                       0
     22 x_22                     1                       1
     23 x_23                     0                       0
     24 x_24                     0                      32
     25 x_25                     0                       0
     26 x_26                     1                       0
     27 x_27                     1                     -14
     28 x_28                     0                       0
     29 x_29                     0                       9
